proyfinal/src/viki/013/experimentInOfficeAgust.take6.output/cd52ae64-23ee-4abd-baef-849f7b5ede60.als.dat
{'cnf.clauses': '118081',
 'cnf.totvars': '69608',
 'conflict literals': '879',
 'conflicts': '119',
 'decisions': '4082',
 'memused.mb': '17.71',
 'outcome': 'UNSAT',
 'propagations': '151242',
 'restarts': '2',
 'solver.msecs': 47,
 'task.msecs': 139}
