proyfinal/src/viki/013/experimentInOfficeAgust.take6.output/cd52ae64-23ee-4abd-baef-849f7b5ede60.als.out
Reading from standard input... Use '--help' for help.
============================[ Problem Statistics ]=============================
|                                                                             |
|  Number of variables:         69608                                         |
|  Number of clauses:          118081                                         |
|  Parse time:                   0.03 s                                       |
|                                                                             |
============================[ Search Statistics ]==============================
| Conflicts |          ORIGINAL         |          LEARNT          | Progress |
|           |    Vars  Clauses Literals |    Limit  Clauses Lit/Cl |          |
===============================================================================
|       100 |   56603    81429   201497 |    29857       91      9 | 18.683 % |
===============================================================================
restarts              : 2
conflicts             : 119            (2523 /sec)
decisions             : 4082           (0.00 % random) (86547 /sec)
propagations          : 151242         (3206657 /sec)
conflict literals     : 879            (18.84 % deleted)
Memory used           : 17.71 MB
CPU time              : 0.047165 s

UNSATISFIABLE
